c Random Network
p min 10 20
n 1 1
n 10 -1
c Transformed from a max-flow problem.
a 	 1	2	0	8	0
a 	 6	9	0	46	0
a 	 6	7	0	2	0
a 	 9	5	0	43	0
a 	 8	9	0	42	0
a 	 2	6	0	43	0
a 	 1	7	0	20	0
a 	 4	9	0	34	0
a 	 2	3	0	21	0
a 	 5	1	0	25	0
a 	 3	5	0	13	0
a 	 3	2	0	7	0
a 	 4	7	0	26	0
a 	 8	3	0	34	0
a 	 5	6	0	24	0
a 	 9	10	0	26	0
a 	 3	4	0	8	0
a 	 7	4	0	4	0
a 	 10	4	0	18	0
a 	 8	1	0	15	0
